% Archivo de datos
r=0.8;     %porcentaje límite para considerar régimen alto 
dr=2;    %número de días de espera para evitar el  régimen alto  
n=4;      %Número de días de producción
s=3;      %Número de clientes
Cn=10;    %Costo de producción de central nuclear
Ch=20;    %Costo de producción de central hidroeléctrica
Ct=30;    %Costo de producción de central térmica
Pn=1000;  %Max. producción diaria de central nuclear
Ph=300;   %Max. producción diaria de central hidroeléctrica
Pt=500;   %Max. producción diaria de  central térmica
D=[|100,200,300
   |200,500,600
   |200,300,400
      |200,300,400|];      %Demanda diaria